[on. 05. april 13:04:54 +0200 2023]  ./input/alternate_g_np_100/100-2-1.gcc
Set parameter Username
Academic license - for non-commercial use only - expires 2024-03-28
Set parameter TimeLimit to value 1800
Set parameter PreCrush to value 1
Set parameter LazyConstraints to value 1
Gurobi Optimizer version 10.0.1 build v10.0.1rc0 (linux64)

CPU model: AMD Ryzen 9 5950X 16-Core Processor, instruction set [SSE2|AVX|AVX2]
Thread count: 16 physical cores, 32 logical processors, using up to 32 threads

Optimize a model with 101 rows, 200 columns and 400 nonzeros
Model fingerprint: 0x8eeefd59
Variable types: 0 continuous, 200 integer (200 binary)
Coefficient statistics:
  Matrix range     [1e+00, 1e+00]
  Objective range  [2e+00, 1e+02]
  Bounds range     [1e+00, 1e+00]
  RHS range        [1e+00, 1e+00]
Presolve time: 0.00s
Presolved: 101 rows, 200 columns, 400 nonzeros
Variable types: 0 continuous, 200 integer (200 binary)

Root relaxation: objective 5.410000e+03, 1 iterations, 0.00 seconds (0.00 work units)

    Nodes    |    Current Node    |     Objective Bounds      |     Work
 Expl Unexpl |  Obj  Depth IntInf | Incumbent    BestBd   Gap | It/Node Time

     0     0 5410.00000    0    -          - 5410.00000      -     -    0s
     0     0 5410.00000    0    -          - 5410.00000      -     -    0s
     0     0 5410.00000    0    8          - 5410.00000      -     -    0s
     0     0 5410.00000    0    -          - 5410.00000      -     -    0s
     0     0 5410.00000    0    -          - 5410.00000      -     -    0s
     0     0 5410.00000    0    -          - 5410.00000      -     -    0s
     0     0 5410.00000    0    -          - 5410.00000      -     -    0s
     0     0 5410.00000    0    -          - 5410.00000      -     -    0s
     0     0 5410.00000    0    -          - 5410.00000      -     -    0s
     0     0 5410.00000    0    -          - 5410.00000      -     -    0s
     0     0 5410.00000    0    -          - 5410.00000      -     -    0s
     0     0 5408.00000    0   21          - 5408.00000      -     -    0s
     0     0 5408.00000    0   11          - 5408.00000      -     -    0s
     0     2 5408.00000    0   13          - 5408.00000      -     -    0s
 18107  7350 infeasible   46               - 4882.00000      -  11.8    5s
 29854 12990 infeasible   44               - 4826.00000      -  14.0   10s
 38526 18094 4494.33333   33    9          - 4808.00000      -  15.6   15s
*46204 19889              31    4185.0000000 4784.00000  14.3%  16.6   19s
 46957 19748     cutoff   37      4185.00000 4777.00000  14.1%  16.8   20s
 57724 22652 4227.50000   39   17 4185.00000 4755.00000  13.6%  19.3   26s
H60140  8326                    4578.0000078 4739.76923  3.53%  19.8   28s
 63304  5747 infeasible   38      4578.00001 4731.15385  3.35%  19.6   30s

Cutting planes:
  User: 115
  Lazy constraints: 5115

Explored 72034 nodes (1335233 simplex iterations) in 33.08 seconds (15.92 work units)
Thread count was 32 (of 32 available processors)

Solution count 2: 4578 4185 

Optimal solution found (tolerance 1.00e-04)
Best objective 4.578000007784e+03, best bound 4.578000007784e+03, gap 0.0000%

User-callback calls 149834, time in user-callback 13.70 sec
Minimal separator inequalities added: 93894
Indegree inequalities added: 0
WRONG SOLUTION
[on. 05. april 13:05:27 +0200 2023]  done

